(set-info :smt-lib-version 2.6)
(set-logic AUFBVFPDTNIRA)
(set-info :source |
Generated by: AdaCore
Generated on: 2020-03-06
Generator: SPARK
Application: Program verification for Ada
Target solver: Z3
|)
(set-info :license "https://creativecommons.org/licenses/by/4.0/")
(set-info :category "industrial")
(set-info :status unknown)
;;; generated by SMT-LIB2 driver
;;; SMT-LIB2 driver: bit-vectors, common part
;;; SMT-LIB2: integer arithmetic
(declare-sort string 0)

(declare-datatypes () ((tuple0 (Tuple0))))
(declare-sort us_private 0)

(declare-fun private__bool_eq (us_private us_private) Bool)

(declare-const us_null_ext__ us_private)

(declare-sort us_type_of_heap 0)

(declare-datatypes ()
((us_type_of_heap__ref
 (us_type_of_heap__refqtmk (us_type_of_heap__content us_type_of_heap)))))
(declare-sort us_image 0)

(declare-datatypes () ((int__ref (int__refqtmk (int__content Int)))))
(declare-datatypes () ((bool__ref (bool__refqtmk (bool__content Bool)))))
(declare-datatypes ()
((us_fixed__ref (us_fixed__refqtmk (us_fixed__content Int)))))
(declare-datatypes () ((real__ref (real__refqtmk (real__content Real)))))
(declare-datatypes ()
((us_private__ref (us_private__refqtmk (us_private__content us_private)))))
(define-fun int__ref___projection ((a int__ref)) Int (int__content a))

(define-fun us_fixed__ref___projection ((a us_fixed__ref)) Int (us_fixed__content
                                                               a))

(define-fun bool__ref___projection ((a bool__ref)) Bool (bool__content a))

(define-fun real__ref___projection ((a real__ref)) Real (real__content a))

(define-fun us_private__ref___projection ((a us_private__ref)) us_private 
  (us_private__content a))

(declare-sort capacity_range 0)

(declare-fun capacity_rangeqtint (capacity_range) Int)

;; capacity_range'axiom
  (assert
  (forall ((i capacity_range))
  (and (<= 0 (capacity_rangeqtint i))
  (<= (capacity_rangeqtint i) 2147483647))))

(define-fun in_range ((x Int)) Bool (and (<= 0 x) (<= x 2147483647)))

(declare-fun attr__ATTRIBUTE_IMAGE (Int) us_image)

(declare-fun attr__ATTRIBUTE_VALUE__pre_check (us_image) Bool)

(declare-fun attr__ATTRIBUTE_VALUE (us_image) Int)

(declare-fun user_eq (capacity_range capacity_range) Bool)

(declare-const dummy capacity_range)

(declare-datatypes ()
((capacity_range__ref
 (capacity_range__refqtmk (capacity_range__content capacity_range)))))
(define-fun capacity_range__ref_capacity_range__content__projection ((a capacity_range__ref)) capacity_range 
  (capacity_range__content a))

(define-fun dynamic_invariant ((temp___expr_342 Int)
  (temp___is_init_338 Bool) (temp___skip_constant_339 Bool)
  (temp___do_toplevel_340 Bool)
  (temp___do_typ_inv_341 Bool)) Bool (=>
                                     (or (= temp___is_init_338 true)
                                     (<= 0 2147483647)) (in_range
                                     temp___expr_342)))

(assert
;; defqtvc
 ;; File "prim_eq_vect.adb", line 5, characters 0-0
  (not (in_range 200)))
(check-sat)

(exit)
